W=8;
H=6;

MAX_TIME=W*H;
MAX_TRACKS=31;

TARGET=(4,8);

TRAINS=[(4,1,RIGHT),(2,7,LEFT),(6,7,LEFT),(4,7,LEFT)];
DECOYS=[];

INIT_POS=[
(1,2,STRAIGHT_RL),
(1,5,STRAIGHT_RL),
(2,7,STRAIGHT_RL),
(4,1,STRAIGHT_RL),
(4,4,STRAIGHT_RL),
(4,7,STRAIGHT_RL),
(4,8,STRAIGHT_RL),
(5,4,ROCK),
(6,2,STRAIGHT_RL),
(6,5,STRAIGHT_RL),
(6,7,STRAIGHT_RL),
];
TUNNEL_PAIRS=[];

GATES=[];
ACTIVATIONS=[];

DSWITCHES=[];
STATIONS=[
  (1,2,1),
  (1,5,2),
  (4,4,1),
  (6,2,4),
  (6,5,3),
];

SEMAPHORE_SUPPLY=0;
